This is Ipopt version 3.13.2, running with linear solver mumps.
NOTE: Other linear solvers might be more efficient (see Ipopt documentation).

Number of nonzeros in equality constraint Jacobian...:   528190
Number of nonzeros in inequality constraint Jacobian.:   737044
Number of nonzeros in Lagrangian Hessian.............:        0

Total number of variables............................:     8004
                     variables with only lower bounds:      800
                variables with lower and upper bounds:     1200
                     variables with only upper bounds:        0
Total number of equality constraints.................:     5594
Total number of inequality constraints...............:     9600
        inequality constraints with only lower bounds:        0
   inequality constraints with lower and upper bounds:     4800
        inequality constraints with only upper bounds:     4800

iter    objective    inf_pr   inf_du lg(mu)  ||d||  lg(rg) alpha_du alpha_pr  ls
   0  1.0000000e+02 2.45e+00 3.20e+00  -3.0 0.00e+00    -  0.00e+00 0.00e+00   0
   1  9.9053068e+01 2.33e+00 3.04e+00  -3.0 5.98e+00    -  6.57e-02 5.46e-02h  1
   2  9.9629128e+01 2.29e+00 2.96e+00  -3.0 4.44e+00    -  1.03e-02 1.60e-02h  1
   3  9.9914503e+01 2.21e+00 7.93e+00  -3.0 3.71e+00    -  1.53e-02 3.89e-02h  1
   4  9.9984714e+01 2.21e+00 6.23e+00  -3.0 3.11e+00    -  1.34e-02 7.52e-04h  8
   5  9.9991802e+01 2.21e+00 6.08e+00  -3.0 3.37e+00    -  1.17e-02 1.47e-04h  9
   6  9.9994198e+01 2.21e+00 6.10e+00  -3.0 3.68e+00    -  2.02e-02 1.84e-05h 12
   7  1.0197281e+02 2.15e+00 5.95e+00  -3.0 3.79e+00    -  2.38e-02 2.38e-02s 18
   8  1.0290463e+02 2.14e+00 5.89e+00  -3.0 5.16e+00    -  8.49e-03 8.49e-03s 18
   9  1.0426383e+02 2.11e+00 6.12e+00  -3.0 5.14e+00    -  1.36e-02 0.00e+00S 18
iter    objective    inf_pr   inf_du lg(mu)  ||d||  lg(rg) alpha_du alpha_pr  ls
  10  1.0832239e+02 2.03e+00 7.01e+00  -3.0 3.78e+00    -  9.14e-02 3.78e-02h  2
  11  1.1088182e+02 1.95e+00 6.72e+00  -3.0 3.27e+00    -  3.64e-02 3.78e-02h  3
  12  1.1442659e+02 1.87e+00 6.29e+00  -3.0 2.98e+00    -  1.00e-01 4.13e-02h  4
  13  1.2044672e+02 1.73e+00 5.68e+00  -3.0 2.85e+00    -  1.01e-01 7.30e-02h  3
  14  1.2967200e+02 1.53e+00 5.71e+00  -3.0 2.68e+00    -  8.88e-02 1.15e-01h  2
  15  1.3080164e+02 1.48e+00 6.21e+00  -3.0 1.47e+00    -  7.85e-02 3.46e-02h  1
  16  1.5112927e+02 9.81e-01 7.82e+00  -3.0 1.83e+00    -  8.96e-02 3.26e-01H  1
  17  1.6791307e+02 8.57e-01 5.90e+00  -3.0 1.46e+00    -  2.74e-01 3.92e-01h  1
  18  1.8899921e+02 9.64e-01 4.15e+00  -3.0 9.41e-01    -  4.12e-01 9.49e-01h  1
  19  1.7791689e+02 1.41e-01 1.40e+00  -3.0 1.76e-01    -  6.31e-01 1.00e+00f  1
iter    objective    inf_pr   inf_du lg(mu)  ||d||  lg(rg) alpha_du alpha_pr  ls
  20  1.5198015e+02 4.91e-01 1.07e+00  -3.0 5.90e-01    -  2.88e-01 1.00e+00f  1
  21  1.4555127e+02 3.06e-01 7.33e-01  -3.0 3.95e-01    -  2.96e-01 1.00e+00h  1
  22  1.4113559e+02 2.51e-01 5.30e-01  -3.0 5.54e-01    -  3.00e-01 5.47e-01h  1
  23  1.3707290e+02 2.29e-01 4.06e-01  -3.0 7.84e-01    -  2.68e-01 5.09e-01h  1
  24  1.3507459e+02 1.83e-01 3.13e-01  -3.0 1.01e+00    -  2.33e-01 2.98e-01h  1
  25  1.3211172e+02 1.30e-01 2.14e-01  -3.0 1.20e+00    -  2.78e-01 4.51e-01h  1
  26  1.2957641e+02 1.01e-01 1.31e-01  -3.0 8.74e-01    -  2.80e-01 5.01e-01h  1
  27  1.2800553e+02 6.30e-02 1.06e-01  -3.0 7.38e-01    -  5.04e-01 4.39e-01h  1
  28  1.2645796e+02 1.51e-01 5.60e-02  -3.0 1.16e+00    -  6.28e-01 4.50e-01h  1
  29  1.2517933e+02 8.60e-02 7.34e-02  -3.0 5.09e-01    -  5.81e-01 5.51e-01h  1
iter    objective    inf_pr   inf_du lg(mu)  ||d||  lg(rg) alpha_du alpha_pr  ls
  30  1.2382701e+02 5.49e-02 1.18e-01  -3.0 4.54e-01    -  9.99e-01 1.00e+00h  1
  31  1.2353377e+02 1.48e-01 1.31e-01  -3.0 5.09e-01    -  9.99e-01 1.00e+00h  1
  32  1.2369163e+02 2.88e-02 4.84e-02  -3.0 2.94e-01    -  1.00e+00 1.00e+00h  1
  33  1.2373603e+02 1.58e-03 4.11e-02  -3.0 6.82e-02    -  1.00e+00 1.00e+00h  1
  34  1.2375568e+02 8.14e-04 2.04e-02  -3.0 1.02e-01    -  1.00e+00 1.00e+00h  1
  35  1.2378415e+02 1.80e-04 5.36e-02  -3.0 3.12e-01    -  1.00e+00 1.00e+00H  1
  36  1.2377250e+02 1.90e-03 3.73e-02  -3.0 1.18e-01    -  1.00e+00 1.00e+00h  1
  37  1.2376689e+02 1.12e-03 1.61e-02  -3.0 8.05e-02    -  1.00e+00 1.00e+00h  1
  38  1.2376892e+02 1.44e-04 1.02e-02  -3.0 4.94e-02    -  1.00e+00 1.00e+00h  1
  39  1.2376977e+02 3.01e-05 1.99e-03  -3.0 1.93e-02    -  1.00e+00 1.00e+00h  1

Number of Iterations....: 39

                                   (scaled)                 (unscaled)
Objective...............:   1.2376976857785627e+02    1.2376976857785627e+02
Dual infeasibility......:   1.9929746557826988e-03    1.9929746557826988e-03
Constraint violation....:   3.0095631230327444e-05    3.0095631230327444e-05
Complementarity.........:   1.0000010640649022e-03    1.0000010640649022e-03
Overall NLP error.......:   1.9929746557826988e-03    1.9929746557826988e-03


Number of objective function evaluations             = 105
Number of objective gradient evaluations             = 40
Number of equality constraint evaluations            = 105
Number of inequality constraint evaluations          = 105
Number of equality constraint Jacobian evaluations   = 40
Number of inequality constraint Jacobian evaluations = 40
Number of Lagrangian Hessian evaluations             = 0
Total CPU secs in IPOPT (w/o function evaluations)   =     68.625
Total CPU secs in NLP function evaluations           =    268.109

EXIT: Optimal Solution Found.
